<number of tasks>
20

<cycle time>
1000

<order strength>
0,816


<task times>
1 290
2 199
3 132
4 90
5 247
6 242
7 142
8 55
9 119
10 24
11 99
12 319
13 45
14 96
15 62
16 21
17 157
18 158
19 172
20 46

<precedence relations>
1,4
2,9
3,4
4,5
4,6
4,7
5,8
5,9
6,9
7,8
7,9
8,10
8,11
8,12
9,10
9,11
9,12
10,13
12,13
13,14
13,15
14,16
14,17
15,20
16,18
16,20
17,18
17,19

<end>
